(set-logic LIA)
(synth-fun next ((brake Int) (distance Int) (speed Int) (throttle Int) (ignition Bool) (time Int) ) Int
	((Start Int) (Var Int) (StartBool Bool))
	((Start Int (
				 2
				 7
				 (ite StartBool Start Start)))

	(Var Int (
			 0
			 1
			 2
			 8
			 11
			 999
			 1097
			 brake
			 distance
			 speed
			 throttle
			 time
			 (+ Var Var)						
			 (- Var Var)						
			 (* Var Var)))

	(StartBool Bool (
				 	 ignition
					(= Var Var)						
					(>= Var Var)						
					(<= Var Var)						
					(and StartBool StartBool)			
					(or  StartBool StartBool)				
					(not StartBool)))))

(constraint (= (next 1 0 0 0 true 1775 ) 7))
(constraint (= (next 0 1 15 3 true 223 ) 2))

(check-synth)
